127
100
6
5
23
13
25
23
14
4
7
12
8
25
12
15
6
13
7
20
13
9
8
2
19
19
8
1
13
17
23
1
8
13
4
8
22
6
23
11
22
10
7
3
2
2
10
21
2
24
3
5
4
10
2
1
22
16
9
17
22
19
16
6
22
11
10
24
25
5
22
5
14
2
8
4
6
21
7
3
17
10
8
24
2
19
21
1
11
10
18
13
13
1
23
11
25
16
21
2
1
7
1
8
24
2
25
12
3
25
25
13
13
21
24
19
4
2
17
13
1
2
19
21
4
6
5
5
2
